 11  27                                 
   1.00000000000000     
    -0.0492263723798582    0.7606443351601267    3.3779224673275619
    -0.1118715058484990    3.3492813867009072   -0.5221791863319942
    -2.4164464650502389    0.0540753561314750    0.3462996652589468
   Cu   Ag
     1     1
Selective dynamics
Direct
  0.7161633929275553  0.8837792108851801  0.5815972230589992   T   T   T
  0.2235047091286262  0.3916093004073602  0.8475487902526453   T   T   T
 
  0.00000000E+00  0.00000000E+00  0.00000000E+00
  0.00000000E+00  0.00000000E+00  0.00000000E+00
