  7  24                                 
   1.00000000000000     
     4.2413871617278982   -0.6270288026845348   -2.8145745404471478
    -1.5060629296192547    0.2639168028331005   -2.4148878577429929
     0.4088448590574701    3.8028819646187912    0.1274501400140593
   Cu   Ag
     3     1
Selective dynamics
Direct
  0.0980857508179511  0.3228277810587272  0.1309707368769679   T   T   T
  0.9739945393034759  0.8077623874677258  0.6318065072779504   T   T   T
  0.4620955113700020  0.2727160800828159  0.4957083405785667   T   T   T
  0.5835234232541282  0.7621863926549750  0.9985125911071364   T   T   T
 
  0.00000000E+00  0.00000000E+00  0.00000000E+00
  0.00000000E+00  0.00000000E+00  0.00000000E+00
  0.00000000E+00  0.00000000E+00  0.00000000E+00
  0.00000000E+00  0.00000000E+00  0.00000000E+00
