  7  25                                 
   1.00000000000000     
     1.7212938156438480    3.7695051938003648   -1.1634971189163894
     2.7984745900055792    0.6651102002624840    4.6140027753744475
     4.3083035376112555   -0.1575937513128621   -1.7392707005066745
   Cu   Ag
     6     1
Selective dynamics
Direct
  0.3926604044347002  0.5366759977807973  0.8251953346745395   T   T   T
  0.4964727969324514  0.9273598418813620  0.8919270427713286   T   T   T
  0.5532325213736371  0.9607186944420860  0.3628469498562694   T   T   T
  0.5165420542807553  0.4496798182394812  0.2657566358401553   T   T   T
  0.9955604580081783  0.6767622756960421  0.5725903362457103   T   T   T
  0.0430897623751463  0.2019349147382599  0.0739013820099359   T   T   T
  0.9501792455458329  0.2223788529863029  0.6125940669480130   T   T   T
 
  0.00000000E+00  0.00000000E+00  0.00000000E+00
  0.00000000E+00  0.00000000E+00  0.00000000E+00
  0.00000000E+00  0.00000000E+00  0.00000000E+00
  0.00000000E+00  0.00000000E+00  0.00000000E+00
  0.00000000E+00  0.00000000E+00  0.00000000E+00
  0.00000000E+00  0.00000000E+00  0.00000000E+00
  0.00000000E+00  0.00000000E+00  0.00000000E+00
