icsd_58525  Li Au                       
   1.00000000000000     
     4.0000000000000000    0.0000000000000000    0.0000000000000000
     0.0000000000000000    4.0000000000000000    0.0000000000000000
     0.0000000000000000    0.0000000000000000    4.0000000000000000
   Cu   Pd
     3     1
Direct
  0.0000000000000000  0.0000000000000000  0.0000000000000000
  0.0000000000000000  0.5000000000000000  0.5000000000000000
  0.5000000000000000  0.5000000000000000  0.0000000000000000
  0.5000000000000000  0.0000000000000000  0.5000000000000000
 
  0.00000000E+00  0.00000000E+00  0.00000000E+00
  0.00000000E+00  0.00000000E+00  0.00000000E+00
  0.00000000E+00  0.00000000E+00  0.00000000E+00
  0.00000000E+00  0.00000000E+00  0.00000000E+00
