
 1.00000000000000
  30.00000000000000    0.00000000000000    0.00000000000000 
   0.00000000000000   30.00000000000000    0.00000000000000 
   0.00000000000000    0.00000000000000   30.00000000000000 
Au 
55 
direct
   0.62756943106075    0.63475030162957    0.56640257775784 
   0.46394917963137    0.37972203781329    0.59724796530633 
   0.41001405053297    0.59843923445205    0.40747433316939 
   0.43166230926205    0.51852748944478    0.65854230876498 
   0.50966996689052    0.47892639794447    0.30857882921598 
   0.55573086417645    0.46051992035972    0.53552431683714 
   0.53255539266255    0.50428616053156    0.65852468549653 
   0.34769698316949    0.51440669804944    0.61881833779231 
   0.59503263807841    0.38527831084015    0.39592616574071 
   0.39731716324511    0.61056387853374    0.49997533740522 
   0.61926201420178    0.39266986351939    0.57727237736864 
   0.43288624097966    0.47499347871240    0.43377307121342 
   0.55428692461534    0.64170310588054    0.50929733757232 
   0.54783452779620    0.55294377562768    0.35062863522171 
   0.44030672284325    0.38117328532884    0.41567422586058 
   0.48956941677441    0.62204120147798    0.36876694318049 
   0.54585036336835    0.41474983404509    0.62583109752308 
   0.65456373878235    0.45963713439849    0.52527230159457 
   0.51816116633272    0.55161484583805    0.54078564229673 
   0.53411352659664    0.45824932163466    0.44008364444880 
   0.64913791800913    0.54687840410486    0.55471885808189 
   0.58645525900330    0.46991551228764    0.35823221301630 
   0.60774074864566    0.38663310670971    0.48626519889354 
   0.54484264925170    0.65174288454767    0.60174251005093 
   0.38013645625426    0.40288457057175    0.47989328697793 
   0.58335094229745    0.52853751093070    0.47923075375703 
   0.63684133043790    0.60719881963472    0.47847572985244 
   0.47720233917958    0.63872491136176    0.45924613509670 
   0.43146190948224    0.52100998086947    0.51442076093062 
   0.42978154725947    0.44714672804703    0.34621185624290 
   0.45044537930012    0.34335457804222    0.50673299673462 
   0.47647175921082    0.47903380717859    0.58586962414836 
   0.36913150000319    0.51590950073084    0.37966330444400 
   0.47151028414014    0.43528352682210    0.67491344765708 
   0.68438202479258    0.52820080233280    0.47022396310587 
   0.40677567505538    0.57870264752136    0.58890653526900 
   0.39347652833275    0.43535560253459    0.62603764467309 
   0.34083946269809    0.48269817474430    0.46231442365493 
   0.33179205832614    0.57223943597655    0.44509673146888 
   0.46939971243102    0.63564713967913    0.55154251122706 
   0.34249374354749    0.45219407284525    0.54959217443339 
   0.37957489712741    0.36770260186459    0.56430710036566 
   0.45421287952262    0.53785033188472    0.35174592075810 
   0.56385844377859    0.61226206360998    0.42221594165998 
   0.52368311224835    0.36008311698304    0.45013704019585 
   0.33764985425936    0.54510430540494    0.53316587296975 
   0.58423548430061    0.56880539797700    0.61832482273956 
   0.51170070785214    0.40435230343601    0.36298962382485 
   0.47104687636682    0.43354034208789    0.50624652710440 
   0.49548212435873    0.54484912706789    0.44442448180969 
   0.61167465271058    0.48137519730008    0.61016417534045 
   0.49049662965198    0.58308549483864    0.62959938383121 
   0.53630433405941    0.36316033859428    0.54305157053890 
   0.64091098944871    0.45695783711578    0.43197322306210 
   0.62746716565590    0.54638354830024    0.39792352231614 
