
 1.00000000000000
  30.00000000000000    0.00000000000000    0.00000000000000 
   0.00000000000000   30.00000000000000    0.00000000000000 
   0.00000000000000    0.00000000000000   30.00000000000000 
Au 
55 
direct
   0.62173775376512    0.61298419357507    0.55875554050457 
   0.51978891743001    0.36346463053322    0.60984349316945 
   0.43043010818690    0.58475809499395    0.36618510944821 
   0.46039711060055    0.51885423102967    0.66730127547072 
   0.49472814521981    0.51175211957358    0.32811227200601 
   0.55407950826692    0.55912532666164    0.55420786139478 
   0.53437281073373    0.49921913867290    0.61629002907145 
   0.37422350138594    0.53428035621626    0.61192624707677 
   0.59192613985484    0.41158968900674    0.38545809941871 
   0.39625130399305    0.63383396045490    0.49321142476779 
   0.57341720494928    0.42236264818608    0.56172663451507 
   0.43092791060696    0.45116266166824    0.45112529241636 
   0.55152822085813    0.66074416699622    0.53303294252792 
   0.56386984079093    0.55823418326508    0.43392933917267 
   0.42296596440435    0.36298710800294    0.42513185466755 
   0.50924747386317    0.60979619598989    0.39476858885843 
   0.46596422840571    0.45313956226503    0.58232927910144 
   0.65894155371615    0.42234846300880    0.52365421610185 
   0.49388272548362    0.59138036808405    0.50403714868994 
   0.54729501170998    0.42695160476030    0.45290458139183 
   0.64471710997226    0.51634724120352    0.57016111529424 
   0.58137908164930    0.50300557307899    0.34635799702352 
   0.60813467356586    0.36325323961070    0.47016676553439 
   0.52017527547504    0.60743528436602    0.63469758054919 
   0.38324930190097    0.37224063818778    0.49995135329279 
   0.57879571908451    0.49655931258973    0.49895138408067 
   0.64664496918057    0.59322387348029    0.47507335394079 
   0.47911334010454    0.66636425784867    0.45890264066038 
   0.43874859517835    0.55297977021729    0.45005763018460 
   0.43167377618764    0.41783885417014    0.36186597624992 
   0.47533207696621    0.32599543973778    0.48823916019160 
   0.40030534880640    0.49401120836059    0.53246638306831 
   0.35360825772959    0.48149095235828    0.41544821820504 
   0.50041054031479    0.43432254681847    0.66237349801097 
   0.67833408787144    0.51221662476449    0.49158252600507 
   0.40320564638075    0.61248258199850    0.58542010221885 
   0.40420606660700    0.45651594036489    0.63603493810381 
   0.33670052653080    0.45105699215924    0.49304813415584 
   0.35385307746932    0.56689233663656    0.44144936207461 
   0.46800727976783    0.65839541215869    0.55427970538597 
   0.36600701660749    0.41885726887239    0.57053705673221 
   0.43606725604512    0.35594233393873    0.57383787903550 
   0.41060763869933    0.50112719690940    0.35423466488237 
   0.57707021871442    0.64483136689038    0.44790262462773 
   0.52304633162638    0.34997822638591    0.41261503135581 
   0.34261121224393    0.56218743916883    0.53040375162994 
   0.60066411980592    0.56069037424700    0.63479387554034 
   0.51757353360528    0.42693084215459    0.35443166884425 
   0.48649703541057    0.50127869714666    0.50823676565960 
   0.50401768896368    0.49759073655773    0.41785422305629 
   0.61338821426166    0.46206919638357    0.63498426688645 
   0.46511745498005    0.55127352419932    0.58548787824037 
   0.49204939560698    0.40587564921725    0.51548988711282 
   0.63649254262278    0.45407877248260    0.43790278284816 
   0.64622015583806    0.53569159239049    0.40082858954606 
