  7  27                                 
   1.00000000000000     
    -0.3141710049558613    1.4215826450222482   -2.2083326861674784
    -3.0546974758256811    2.3941092723519768    1.1352288279558203
     1.7685975239324443    1.9219705272395886    0.4854352617551313
   Cu   Ag
     1     1
Selective dynamics
Direct
  0.6211680999253844  0.4576495612219418  0.2228043142121336   T   T   T
  0.5535416702529048  0.9013144362084375  0.6892039534167367   T   T   T
 
  0.00000000E+00  0.00000000E+00  0.00000000E+00
  0.00000000E+00  0.00000000E+00  0.00000000E+00
