  0  24                                 
   1.00000000000000     
     1.8967592736822660   -0.3064807186494864   -1.7650503725504842
    -0.8713445330167202    3.9188556540555330   -1.1982903033023327
     1.6181583914847768    0.6124591408043802    1.8457576353017024
   Cu   Ag
     1     1
Selective dynamics
Direct
  0.5343305901396178  0.2160398066435434  0.0931526917016043   T   T   T
  0.9677985879784501  0.7697313499727159  0.5320283281197433   T   T   T
 
  0.00000000E+00  0.00000000E+00  0.00000000E+00
  0.00000000E+00  0.00000000E+00  0.00000000E+00
