 23  27                                 
   1.00000000000000     
     0.3722181066797327    1.1339229015536663    4.4570395160959633
     0.3407773216961070    2.5938291678149077   -0.3897710769195981
    -2.5547101624864821   -0.4219064874408168   -0.1253170405459526
   Cu   Ag
     1     1
Selective dynamics
Direct
  0.6363447795980477  0.8328331563975411  0.5571339364843269   T   T   T
  0.0783696554445186  0.3607578452473135  0.0678860661635454   T   T   T
 
  0.00000000E+00  0.00000000E+00  0.00000000E+00
  0.00000000E+00  0.00000000E+00  0.00000000E+00
