Cu-Ag
 1.00000000000000
   6.00000000000000    0.00000000000000    0.00000000000000 
   0.00000000000000    6.00000000000000    0.00000000000000 
   0.00000000000000    0.00000000000000    6.00000000000000 
Cu Ag 
8 8 
direct
   0.98499887931886    0.02445284161830    0.00554106691360 
   0.99105652575761    0.97289288775435    0.46840536469509 
   0.00992772423481    0.48709048003233    0.95854673232537 
   0.04299411083424    0.54399379253868    0.52293768333035 
   0.52920059099877    0.05382412356925    0.03905412239116 
   0.51552967351908    0.01931934980395    0.46083795269919 
   0.48265017622879    0.51051603840505    0.94851626436399 
   0.47671592587599    0.53780269992502    0.55203494676929 
   0.26637692473612    0.27640933627142    0.24759342709197 
   0.75867261358552    0.29160551499023    0.26869653738333 
   0.25112809857539    0.75725711585261    0.24280717274022 
   0.73972649164031    0.24975535270304    0.72990642312316 
   0.23817394659961    0.23785336147753    0.72509496200174 
   0.74938844436358    0.72976771605339    0.24517136124562 
   0.24981296768900    0.82010738896191    0.76316516487687 
   0.76177331435264    0.77677791017748    0.72940995288702 

   0.00020796452007   -0.00131106621054   -0.00302646608411
   0.00425892478186   -0.00007008852371    0.00585208072983
   0.00125334704758    0.00042017494260    0.00220670874601
  -0.00288069281187   -0.00321430882364    0.00087218625797
  -0.00599660701699   -0.00557814522866   -0.00501320180567
  -0.00210707955459    0.00279795126712    0.00035091219278
   0.00300825956206    0.00634607766924    0.00592865813447
   0.00698485728918   -0.00359480636197    0.00330307061854
  -0.00360159300253    0.00172633275551   -0.00684012976414
   0.00041206093506   -0.00516331745244   -0.00339957387680
  -0.00041224770958    0.00307866458509    0.00141204094508
  -0.00157639022046    0.00528798160705   -0.00124809113999
   0.00007402537001   -0.00255263278648    0.00073371253295
   0.00250632317019    0.00306512183918    0.00269750221636
   0.00003344583981    0.00031618461704    0.00026844498344
   0.00032685952857    0.00033588743664   -0.00097151141956
