Cu-Ag
 1.00000000000000
   6.00000000000000    0.00000000000000    0.00000000000000 
   0.00000000000000    6.00000000000000    0.00000000000000 
   0.00000000000000    0.00000000000000    6.00000000000000 
Cu Ag 
8 8 
direct
   0.03472644033271    0.97034636325880    0.96489665385105 
   0.03623947963718    0.06850848539641    0.53315514905369 
   0.97432489147088    0.52702780268673    0.03124777119109 
   0.97584236646635    0.51357266066042    0.48452839326634 
   0.46849060088511    0.98801788595355    0.96803853479792 
   0.48781148904832    0.08031948889917    0.49147601085562 
   0.49270555548205    0.59368584249374    0.01474904604177 
   0.56011810486349    0.48833906631016    0.49977490076098 
   0.23702685943658    0.24811526996618    0.23901979577800 
   0.76571757689430    0.25929910936543    0.22380362487997 
   0.22230548349052    0.77847524451487    0.25710623005932 
   0.75917044250983    0.26031377773690    0.77138739493385 
   0.28190801938558    0.33533562230814    0.79320308714603 
   0.74983382584710    0.82614486349455    0.21876182457571 
   0.27614502139148    0.76785661231293    0.65928938787309 
   0.74829397077448    0.77319146775224    0.71956407071604 

  -0.01024115524108    0.00194104484402    0.01551752519730
  -0.00686547512412    0.00077838935170   -0.01048522584589
   0.00541398534077   -0.00051207056740   -0.00440883520180
   0.00188932440141    0.00575140221826    0.00532749295155
  -0.00168634133555    0.01061973996324   -0.00930700351817
   0.00819796964485    0.00172807857610   -0.00517503030278
  -0.00499038630686   -0.01082930024617    0.00834907363065
   0.00101490687968   -0.00101548183016    0.00065390010424
   0.00120198612980    0.00141336923236    0.00236279371482
  -0.00006825935444    0.00315030626235   -0.00254138284206
  -0.00032237496683   -0.00449588685682   -0.00108893622746
   0.00183735559941   -0.00194065445368    0.00223740712631
  -0.00510673902637    0.00720222442165    0.00206619448984
  -0.00241597601471   -0.00597298140134   -0.00860056430481
   0.00243301997999   -0.00096505103385   -0.00083605375643
   0.00776028701504    0.00347237487316    0.00389364547742
