Cu-Ag
 1.00000000000000
   6.00000000000000    0.00000000000000    0.00000000000000 
   0.00000000000000    6.00000000000000    0.00000000000000 
   0.00000000000000    0.00000000000000    6.00000000000000 
Cu Ag 
8 8 
direct
   0.96902373787868    0.03519981702328    0.05213580529923 
   0.97094958207101    0.00894872577542    0.47276125191020 
   0.00008267758552    0.51969964213246    0.99579357653405 
   0.02437967881605    0.58896138734302    0.48526397893605 
   0.49271448460396    0.08188421413686    0.94484112363824 
   0.54817168816641    0.06672374059926    0.46350221735803 
   0.47676722538554    0.49812019486914    0.94726039024409 
   0.51409998523539    0.54100421532191    0.52421294276149 
   0.28765329691208    0.31154442987606    0.22551521757153 
   0.77958030296474    0.31871094988341    0.26438991405265 
   0.31201615572468    0.79134231661449    0.23289151806182 
   0.80742630204165    0.28423840770729    0.71297264256980 
   0.22321670393821    0.25646775572739    0.74331409743306 
   0.74266163518722    0.77016829294489    0.18658333908097 
   0.20561270536888    0.79791799212328    0.74960500314076 
   0.72420808866948    0.79760691693858    0.77998293866368 

  -0.00206583330324    0.00163894766483    0.00421100527231
  -0.00418085513602    0.00613410686481   -0.00444434968118
  -0.00610601845100    0.00374775793244   -0.01131020795180
   0.00092199292429   -0.00838792620347   -0.00032725044879
  -0.00123758209997    0.00045089704506   -0.01083935182669
   0.00230646977306   -0.00061863273562   -0.00290933729041
   0.01024869909192    0.00425458928951   -0.00144854640952
   0.00013312896179   -0.00051835360604   -0.00111046751947
   0.00218590456288   -0.00606371307695    0.00826192956381
  -0.00151120576277    0.00758864185047    0.00595871246199
   0.00021703947366    0.00088171164655   -0.00512425893526
  -0.00206532844950   -0.00015003844603    0.00035681021201
   0.00227062953235    0.00324124420224    0.00507839056466
  -0.00024340491982   -0.00543859479392    0.00254882132391
   0.00046479772126    0.00297627139135    0.00423277898429
  -0.00059626482306   -0.00214154080860   -0.00628878827551
