Cu-Ag
 1.00000000000000
   6.00000000000000    0.00000000000000    0.00000000000000 
   0.00000000000000    6.00000000000000    0.00000000000000 
   0.00000000000000    0.00000000000000    6.00000000000000 
Cu Ag 
8 8 
direct
   0.00000000000000    0.00000000000000    0.00000000000000 
   0.00000000000000    0.00000000000000    0.50000000000000 
   0.00000000000000    0.50000000000000    0.00000000000000 
   0.00000000000000    0.50000000000000    0.50000000000000 
   0.50000000000000    0.00000000000000    0.00000000000000 
   0.50000000000000    0.00000000000000    0.50000000000000 
   0.50000000000000    0.50000000000000    0.00000000000000 
   0.50000000000000    0.50000000000000    0.50000000000000 
   0.25000000000000    0.25000000000000    0.25000000000000 
   0.75000000000000    0.25000000000000    0.25000000000000 
   0.25000000000000    0.75000000000000    0.25000000000000 
   0.75000000000000    0.25000000000000    0.75000000000000 
   0.25000000000000    0.25000000000000    0.75000000000000 
   0.75000000000000    0.75000000000000    0.25000000000000 
   0.25000000000000    0.75000000000000    0.75000000000000 
   0.75000000000000    0.75000000000000    0.75000000000000 
