 16  23                                 
   1.00000000000000     
     0.1013564023794403    0.4611128416924618    2.6072363622658745
    -0.0438256739718129    2.8625559239321632   -0.6445832649615584
    -2.7565060984835204   -0.0079341778377948    0.1951947513546458
   Cu   Ag
     1     1
Selective dynamics
Direct
  0.7021987075894458  0.8898760448657441  0.4413189699714835   T   T   T
  0.2228593014447142  0.2624560253041750  0.9592398794606964   T   T   T
 
  0.00000000E+00  0.00000000E+00  0.00000000E+00
  0.00000000E+00  0.00000000E+00  0.00000000E+00
