CuAg
 1.00000000000000
   6.23344492208666    0.00000000000000    0.00000000000000 
   0.00000000000000    6.23344492208668    0.00000000000000 
   0.00000000000000    0.00000000000000    3.11672246104334 
Cu Ag 
4 4 
direct
   1.00000000000000    0.99999999999999    0.99999999999999 
   1.00000000000000    0.50000000000000    0.99999999999999 
   0.50000000000000    1.00000000000000    1.00000000000000 
   0.50000000000000    0.50000000000000    1.00000000000000 
   0.25000000000000    0.25000000000000    0.50000000000000 
   0.75000000000000    0.25000000000000    0.50000000000000 
   0.25000000000000    0.75000000000000    0.50000000000000 
   0.75000000000000    0.75000000000000    0.50000000000000 
