  0  20                                 
   1.00000000000000     
     1.0673534881764786    2.9359390058516239   -0.2347671117018858
    -4.1458852222429714    0.0432328110193914    0.2355267145536733
     0.1854545219355435   -0.2492073368080941    3.8425803196305965
   Cu   Ag
     1     1
Selective dynamics
Direct
  0.3770245744533796  0.6041782401395110  0.5334500909536217   T   T   T
  0.8200834513429172  0.6374938933244891  0.0967147911509585   T   T   T
 
  0.00000000E+00  0.00000000E+00  0.00000000E+00
  0.00000000E+00  0.00000000E+00  0.00000000E+00
