  8  26                                 
   1.00000000000000     
     2.1977726003756142   -3.3203964438019882    0.0446386198219430
     0.0334369459857542    0.5818904166978460   -4.3813799651782741
     2.5538193559250750    3.5056603265897177    1.1531662874079458
   Cu   Ag
     2     2
Selective dynamics
Direct
  0.6016084504345329  0.4615388818602923  0.0972453113941114   T   T   T
  0.9032966417194501  0.1940034396226622  0.4531378458396915   T   T   T
  0.9818256672865004  0.6511999544132436  0.8109242584899761   T   T   T
  0.3862853875906822  0.8023346479182649  0.4483969770767189   T   T   T
 
  0.00000000E+00  0.00000000E+00  0.00000000E+00
  0.00000000E+00  0.00000000E+00  0.00000000E+00
  0.00000000E+00  0.00000000E+00  0.00000000E+00
  0.00000000E+00  0.00000000E+00  0.00000000E+00
