 23  28                                 
   1.00000000000000     
     2.5889225219092751   -0.3071566356340512   -1.1996123035280535
     1.2640204574522840    4.4715376159205356   -1.4181940843551606
     1.0321844181350406    1.0011228879469447    2.0318723763321263
   Cu   Ag
     1     1
Selective dynamics
Direct
  0.7013080372102749  0.7964247738585541  0.3147773217014418   T   T   T
  0.0234956165079367  0.2437324196978636  0.3461877684722126   T   T   T
 
  0.00000000E+00  0.00000000E+00  0.00000000E+00
  0.00000000E+00  0.00000000E+00  0.00000000E+00
