  7  29                                 
   1.00000000000000     
     3.2802289599052710   -0.4884768846946755   -2.0911893863227822
    -1.6452837358894743   -0.2508542597328973   -1.9805551992463202
     0.5456520903852495    4.8592753972774902    0.4369198149066352
   Cu   Ag
     3     1
Selective dynamics
Direct
  0.0032027044020140  0.4819051926543878  0.2102998872502013   T   T   T
  0.0143154464421755  0.9017406150401044  0.6762478635040168   T   T   T
  0.5186300271761652  0.2217825195246874  0.4869783746493539   T   T   T
  0.5000089673883892  0.7940667579487979  0.9820905151971928   T   T   T
 
  0.00000000E+00  0.00000000E+00  0.00000000E+00
  0.00000000E+00  0.00000000E+00  0.00000000E+00
  0.00000000E+00  0.00000000E+00  0.00000000E+00
  0.00000000E+00  0.00000000E+00  0.00000000E+00
