 14  25                                 
   1.00000000000000     
     0.6037929224282401    2.5968485314238330    4.0099527879047310
     0.5957208243929405    1.8655707411052551   -1.8240019980305642
    -2.1561230094110315    0.9931706448614116   -1.0078781878419676
   Cu   Ag
     1     1
Selective dynamics
Direct
  0.7562436883606907  0.6895432782102162  0.4742372141071698   T   T   T
  0.2753644878774395  0.2508893300691000  0.0629280380834984   T   T   T
 
  0.00000000E+00  0.00000000E+00  0.00000000E+00
  0.00000000E+00  0.00000000E+00  0.00000000E+00
