 23  21                                 
   1.00000000000000     
    -2.2331537438099396    0.5086694439522993    3.5759452037046295
    -0.0520173130334535    2.9647054874156589   -0.7807280063185102
    -2.9506468777595072    0.0512193557708553   -0.3304422747296366
   Cu   Ag
     1     1
Selective dynamics
Direct
  0.6748214244362671  0.8652010793505909  0.6868404088621389   T   T   T
  0.2369461009036229  0.3546633615270807  0.5840674843800002   T   T   T
 
  0.00000000E+00  0.00000000E+00  0.00000000E+00
  0.00000000E+00  0.00000000E+00  0.00000000E+00
