icsd_58525  Li Au                       
   1.00000000000000     
     3.7201109925473399    0.0000000000000000    0.0000000000000000
     0.0000000000000000    3.7201109925473399    0.0000000000000000
     0.0000000000000000    0.0000000000000000    3.7201109925473399
   Cu   Ag
     1     3
Direct
  0.0000000000000000  0.0000000000000000  0.0000000000000000
  0.0000000000000000  0.5000000000000000  0.5000000000000000
  0.5000000000000000  0.5000000000000000  0.0000000000000000
  0.5000000000000000  0.0000000000000000  0.5000000000000000
 
  0.00000000E+00  0.00000000E+00  0.00000000E+00
  0.00000000E+00  0.00000000E+00  0.00000000E+00
  0.00000000E+00  0.00000000E+00  0.00000000E+00
  0.00000000E+00  0.00000000E+00  0.00000000E+00
