 13  26                                 
   1.00000000000000     
    -1.3297768343359575    0.1668146558774576   -2.3885755286654544
    -1.7509642144529640    2.8484734735363197    1.8799812902249666
     1.8312049633770879    1.9172968171160347   -0.3644941220778026
   Cu   Ag
     1     1
Selective dynamics
Direct
  0.9663951617128461  0.4671400534223267  0.8889123573373325   T   T   T
  0.4521993244046811  0.9722006832346750  0.3841692252303730   T   T   T
 
  0.00000000E+00  0.00000000E+00  0.00000000E+00
  0.00000000E+00  0.00000000E+00  0.00000000E+00
