  7  20                                 
   1.00000000000000     
    -0.0782018573857706    1.2769889538151877    4.6783480642608168
    -0.4065449195017129    3.4481474737222189   -0.2150990459885747
    -4.6989863137220054    0.3442608425973329    0.6994431436111804
   Cu   Ag
     1     1
Selective dynamics
Direct
  0.5768050017921666  0.0055512198334640  0.2602982395656852   T   T   T
  0.1806072425375476  0.3731820107288684  0.0185357774455142   T   T   T
 
  0.00000000E+00  0.00000000E+00  0.00000000E+00
  0.00000000E+00  0.00000000E+00  0.00000000E+00
