  7  20                                 
   1.00000000000000     
     1.7537383011387511   -0.4354109326821448   -3.9999657521870415
    -1.8170753511740099    0.0445295745248422   -1.7894627891925410
     0.1286904085198887    4.9399825403274864    0.6766450373116644
   Cu   Ag
     3     1
Selective dynamics
Direct
  0.0256097576041228  0.4699399844195113  0.1747557222839120   T   T   T
  0.9885560483573101  0.9527499810339179  0.5854258151405816   T   T   T
  0.5004280846993083  0.6907018293479794  0.4769264782553932   T   T   T
  0.4983584218121493  0.2996976715184800  0.9354055468905145   T   T   T
 
  0.00000000E+00  0.00000000E+00  0.00000000E+00
  0.00000000E+00  0.00000000E+00  0.00000000E+00
  0.00000000E+00  0.00000000E+00  0.00000000E+00
  0.00000000E+00  0.00000000E+00  0.00000000E+00
