 11  22                                 
   1.00000000000000     
     2.0081905387885230    0.7524903469178942    1.9842189445618659
    -2.2070569737639856    2.8521734901483731    2.4499904088865283
     0.3076830636412589   -1.7218270475393871    2.1083298197067268
   Cu   Ag
     1     1
Selective dynamics
Direct
  0.7926973903690850  0.5082003396576056  0.3787236527924094   T   T   T
  0.9766583979964736  0.0074195160190769  0.7478590615703595   T   T   T
 
  0.00000000E+00  0.00000000E+00  0.00000000E+00
  0.00000000E+00  0.00000000E+00  0.00000000E+00
