  7  23                                 
   1.00000000000000     
     3.9111221016678512   -1.0638777047246790   -2.3501534258111603
    -1.7934812973419954   -0.0446259426574592   -1.9702555718636767
    -0.2473889458715899    5.1168054563883336    1.0672795644129265
   Cu   Ag
     3     1
Selective dynamics
Direct
  0.0591773482788369  0.4368450940424822  0.1587111630505262   T   T   T
  0.0135559428537775  0.8244255120830388  0.6212137308013013   T   T   T
  0.5064022049342825  0.1425207873330407  0.5215563507788019   T   T   T
  0.5312616053820634  0.7286889384356456  0.0345309166966103   T   T   T
 
  0.00000000E+00  0.00000000E+00  0.00000000E+00
  0.00000000E+00  0.00000000E+00  0.00000000E+00
  0.00000000E+00  0.00000000E+00  0.00000000E+00
  0.00000000E+00  0.00000000E+00  0.00000000E+00
