  8  27                                 
   1.00000000000000     
     4.7396555319499258    1.0855940175826246   -0.5643242444791728
    -0.5951565404762739    0.9785862233982777    2.9248428333413834
     3.2836449345324659   -3.3489776405625387    1.4425719319160322
   Cu   Ag
     2     2
Selective dynamics
Direct
  0.3651278014025721  0.3041455213951778  0.3292241026717804   T   T   T
  0.1999670645480052  0.4808559588980117  0.8429728787674975   T   T   T
  0.8851216129793897  0.7411020837406994  0.3212256258012687   T   T   T
  0.6916036420485554  0.9525886287123981  0.8854965143746725   T   T   T
 
  0.00000000E+00  0.00000000E+00  0.00000000E+00
  0.00000000E+00  0.00000000E+00  0.00000000E+00
  0.00000000E+00  0.00000000E+00  0.00000000E+00
  0.00000000E+00  0.00000000E+00  0.00000000E+00
