
 1.00000000000000
  20.00000000000000    0.00000000000000    0.00000000000000
   0.00000000000000   20.00000000000000    0.00000000000000
   0.00000000000000    0.00000000000000   20.00000000000000
Cu
4
direct
   0.10000000000000    0.00000000000000    0.00000000000000
  -0.10000000000000    0.00000000000000    0.00000000000000
   0.00000000000000    0.10000000000000    0.00000000000000
   0.00000000000000   -0.10000000000000    0.00000000000000
