 15  21                                 
   1.00000000000000     
     2.3571894003786156   -0.1505475246761634   -0.2056518893651663
    -0.0647224243322102    4.8210995446205267   -1.4013564301864008
    -0.5455231916221567    1.1788365262426153    2.5708407670855795
   Cu   Ag
     1     1
Selective dynamics
Direct
  0.0611516751146084  0.6610416668395160  0.4596732710948430   T   T   T
  0.6326549378330952  0.1316630039253113  0.4335299561145263   T   T   T
 
  0.00000000E+00  0.00000000E+00  0.00000000E+00
  0.00000000E+00  0.00000000E+00  0.00000000E+00
