                                        
   1.00000000000000     
     0.4001436178548680    2.1642387253045885    2.1651679884296895
    -1.7125800803334152    2.0416564749468593   -2.1390814763441606
    -2.1206375082405082   -1.8097060844537924    2.8128923102715011
   Cu   Ag
     1     1
Selective dynamics
Direct
  0.1250461880986222  0.6242007650249661  0.5934719736224991   T   T   T
  0.5999544996481703  0.2316709425745884  0.9147262520192214   T   T   T
 
  0.00000000E+00  0.00000000E+00  0.00000000E+00
  0.00000000E+00  0.00000000E+00  0.00000000E+00
