  9  26                                 
   1.00000000000000     
     1.9533839149101713   -1.6679014278090363   -2.1270776888578102
    -1.4993102748499567    3.6843647762955540   -2.5730624388249304
     1.7583298300490495    1.0303888829844963    1.6378242015433546
   Cu   Ag
     1     1
Selective dynamics
Direct
  0.7506723042487451  0.5703343540455776  0.0590109683150786   T   T   T
  0.3325972179739694  0.0402528219725653  0.8505138965100869   T   T   T
 
  0.00000000E+00  0.00000000E+00  0.00000000E+00
  0.00000000E+00  0.00000000E+00  0.00000000E+00
