  7  26                                 
   1.00000000000000     
     2.0626695912621531   -0.8382958419436563   -1.4930805626244670
    -1.1663745476596969    3.4646460909212604   -2.3662935467042563
     1.9729141388230955    1.3314694390683393    1.2946258628463163
   Cu   Ag
     1     1
Selective dynamics
Direct
  0.6623618765373678  0.6399990250874197  0.1158479884462906   T   T   T
  0.3438596699082836  0.1169301607997895  0.6638237465395278   T   T   T
 
  0.00000000E+00  0.00000000E+00  0.00000000E+00
  0.00000000E+00  0.00000000E+00  0.00000000E+00
