
 1.00000000000000
  20.00000000000000    0.00000000000000    0.00000000000000 
   0.00000000000000   20.00000000000000    0.00000000000000 
   0.00000000000000    0.00000000000000   20.00000000000000 
Cu 
4 
direct
   0.60000000000000    0.50000000000000    0.50000000000000 
   0.40000000000000    0.50000000000000    0.50000000000000 
   0.50000000000000    0.60000000000000    0.50000000000000 
   0.50000000000000    0.40000000000000    0.50000000000000 
