icsd_58525  Li Au                       
 1.00000000000000
   3.72890112684628    0.00000000000000    0.00000000000000 
   0.00000000000000    3.72890112684628    0.00000000000000 
   0.00000000000000    0.00000000000000    3.72890112684628 
Cu Pd 
3 1 
direct
   0.00000000000000    0.00000000000000    0.00000000000000 
   0.00000000000000    0.50000000000000    0.50000000000000 
   0.50000000000000    0.50000000000000    0.00000000000000 
   0.50000000000000    0.00000000000000    0.50000000000000 

   0.00000000000000    0.00000000000000    0.00000000000000
   0.00000000000000    0.00000000000000    0.00000000000000
   0.00000000000000    0.00000000000000    0.00000000000000
   0.00000000000000    0.00000000000000    0.00000000000000
