SYSTEM = A
IBRION=1
LWAVE=.FALSE.
LCHARG=.FALSE.
NPAR=4
NSIM=4
ALGO=normal
#====== DO NOT CHANGE FROM HERE
NSW=0
PSTRESS=200.0
PREC=acc
ISIF=3
ISMEAR=1
SIGMA=0.1
SYMPREC=1e-08
ENCUT=500.0
