 23  20                                 
   1.00000000000000     
     0.2028444982704147    1.1992095639814244    2.2146702571669596
     3.6229680898106538    1.7831886261129866   -1.8784732903366967
    -2.0859228307236415    1.6312909694694699   -0.7260939129774490
   Cu   Ag
     1     1
Selective dynamics
Direct
  0.7690944913692803  0.6384060141374235  0.2706499106239448   T   T   T
  0.3680098121788475  0.0397566378964029  0.9882888028947221   T   T   T
 
  0.00000000E+00  0.00000000E+00  0.00000000E+00
  0.00000000E+00  0.00000000E+00  0.00000000E+00
