  7  25                                 
   1.00000000000000     
     1.7128309923478362   -0.8145281847223270   -1.9525362551179826
    -1.3694929137476675    3.0965189001678333   -2.4710892003404519
     2.0608312205199897    1.2394890702074002    1.6882952010082823
   Cu   Ag
     1     1
Selective dynamics
Direct
  0.8219823227939784  0.6254737888249622  0.0665018798913550   T   T   T
  0.2642532511339937  0.0714743043828889  0.7508094128661540   T   T   T
 
  0.00000000E+00  0.00000000E+00  0.00000000E+00
  0.00000000E+00  0.00000000E+00  0.00000000E+00
