  7  26                                 
   1.00000000000000     
     3.0165036055722272   -0.9549295334043789   -2.2652184702141391
    -0.9974324216145606   -0.6489849291385705   -2.0744034805582077
     0.3923947428486431    4.7583497187641051   -2.5534160573862135
   Cu   Ag
     3     1
Selective dynamics
Direct
  0.0102121959434456  0.4378118506979476  0.2537065070967088   T   T   T
  0.0241061307722106  0.1246850236869363  0.7209036614024029   T   T   T
  0.5627380640319330  0.0465610719222909  0.5193024094467020   T   T   T
  0.5454817348289609  0.7617074177215457  0.9887419472904497   T   T   T
 
  0.00000000E+00  0.00000000E+00  0.00000000E+00
  0.00000000E+00  0.00000000E+00  0.00000000E+00
  0.00000000E+00  0.00000000E+00  0.00000000E+00
  0.00000000E+00  0.00000000E+00  0.00000000E+00
