 16  26                                 
   1.00000000000000     
     2.8269301106819786    0.5650892150292967   -0.6799523829588303
    -2.4820928497138666    4.1047643285578896   -0.5820116074557740
     1.1117541197077081    1.1197676533831671    2.0599774490958502
   Cu   Ag
     1     1
Selective dynamics
Direct
  0.2957992188886038  0.6434782303703841  0.6200562097502242   T   T   T
  0.4018787227865062  0.1630160796541915  0.4491592189304470   T   T   T
 
  0.00000000E+00  0.00000000E+00  0.00000000E+00
  0.00000000E+00  0.00000000E+00  0.00000000E+00
