  4  29                                 
   1.00000000000000     
     1.9922054307482731   -0.4585073740993563   -1.6962556545476073
    -1.0150333147572481    3.5228489292194709   -2.2977035292656436
     2.0741200181679176    1.1897755766441469    1.3208313757416261
   Cu   Ag
     1     1
Selective dynamics
Direct
  0.7500679593954018  0.5667472912138507  0.1692450331635271   T   T   T
  0.1248916379011220  0.0512865197164984  0.6950145005545636   T   T   T
 
  0.00000000E+00  0.00000000E+00  0.00000000E+00
  0.00000000E+00  0.00000000E+00  0.00000000E+00
