  8  24                                 
   1.00000000000000     
     4.5972051830701020    0.3148619471809870    0.3089836073086193
    -0.2731382155954964    1.1224274230036226    3.4047641418159862
    -0.4564013615035727   -3.8787962680171089    2.0016708818535807
   Cu   Ag
     2     2
Selective dynamics
Direct
  0.7295927411808947  0.1355251193143161  0.4513782484951676   T   T   T
  0.9224861355475227  0.4424998637634587  0.8950432060771689   T   T   T
  0.1564310106352025  0.7012695926388375  0.4018593933780892   T   T   T
  0.3673817722997441  0.0970001534766709  0.8285706157937440   T   T   T
 
  0.00000000E+00  0.00000000E+00  0.00000000E+00
  0.00000000E+00  0.00000000E+00  0.00000000E+00
  0.00000000E+00  0.00000000E+00  0.00000000E+00
  0.00000000E+00  0.00000000E+00  0.00000000E+00
