  1  27                                 
   1.00000000000000     
     0.5235393467838700    2.7156978844387378    0.2920305164909822
    -3.2716063413081855   -0.4115295135157980    2.5200184248886708
     1.8681842588987694   -0.4989005522216585    2.0665608056966867
   Cu   Ag
     1     1
Selective dynamics
Direct
  0.7225924235583605  0.5351998064744805  0.9449719917483677   T   T   T
  0.3551143999085298  0.0008991838067232  0.4933421761447079   T   T   T
 
  0.00000000E+00  0.00000000E+00  0.00000000E+00
  0.00000000E+00  0.00000000E+00  0.00000000E+00
