  7  21                                 
   1.00000000000000     
     2.2823342071799422   -2.6798351410100194   -4.5749736545311768
     2.7207053907496652    2.9869134771378021    0.5288723153390688
     1.1122755884961348   -1.8988317478494907    3.4394043943922656
   Cu   Ag
     6     1
Selective dynamics
Direct
  0.8292418778031418  0.1823954277788573  0.0932921020345461   T   T   T
  0.3589016667061955  0.4201446388672920  0.2923354949497465   T   T   T
  0.5771228769545260  0.6506141453762950  0.8888059874717626   T   T   T
  0.6463520220577621  0.0096089096558742  0.4852187764968576   T   T   T
  0.2322841015590313  0.1946168637909267  0.7413095643242045   T   T   T
  0.9017379537178627  0.6110923037979745  0.5261727265088254   T   T   T
  0.1310306251598163  0.8285470610182344  0.1402109014713915   T   T   T
 
  0.00000000E+00  0.00000000E+00  0.00000000E+00
  0.00000000E+00  0.00000000E+00  0.00000000E+00
  0.00000000E+00  0.00000000E+00  0.00000000E+00
  0.00000000E+00  0.00000000E+00  0.00000000E+00
  0.00000000E+00  0.00000000E+00  0.00000000E+00
  0.00000000E+00  0.00000000E+00  0.00000000E+00
  0.00000000E+00  0.00000000E+00  0.00000000E+00
