Cu 
 1.00000000000000
   3.63437363095124    0.00000000000000    0.00000000000000 
   0.00000000000000    3.63437363095125    0.00000000000000 
   0.00000000000000    0.00000000000000    3.63437363070141 
Cu 
4 
direct
   0.00000000000000    0.00000000000000    0.00000000000000 
   0.00000000000000    0.50000000000000    0.50000000000000 
   0.50000000000000    0.00000000000000    0.50000000000000 
   0.50000000000000    0.50000000000000    0.00000000000000 
