Cu 
 1.00000000000000
   3.62635840191274    0.00000000000000    0.00000000000000 
   0.00000000000000    3.62635840191274    0.00000000000000 
   0.00000000000000    0.00000000000000    6.02635840191274 
Cu 
4 
direct
   0.00000000000000    0.00000000000000    0.00000000000000 
   0.00000000000000    0.50000000000000    0.50000000000000 
   0.50000000000000    0.00000000000000    0.50000000000000 
   0.50000000000000    0.50000000000000    0.00000000000000 
