  5  28                                 
   1.00000000000000     
     1.5155273585745721   -0.9761552702350356   -1.9713283846103651
    -1.1204310291761361    3.5910247279053165   -2.7342593292064872
     1.8350910206152391    1.0164175506695006    1.8465878012125629
   Cu   Ag
     1     1
Selective dynamics
Direct
  0.7432462419505370  0.5816355516861123  0.0510526562894853   T   T   T
  0.2879359345539783  0.0422084112629761  0.8182705665534513   T   T   T
 
  0.00000000E+00  0.00000000E+00  0.00000000E+00
  0.00000000E+00  0.00000000E+00  0.00000000E+00
