  7  28                                 
   1.00000000000000     
     4.0936891318417370   -0.1949782745291018    1.7841160496378980
    -3.1183397343685670   -0.5368984639382830    3.1741341367384313
     0.2263269805524292   -4.8395201271195498   -0.7334281780189317
   Cu   Ag
     6     1
Selective dynamics
Direct
  0.9201233631802808  0.6185088296599019  0.5561258953464971   T   T   T
  0.8074517725415831  0.0889179912416438  0.4257658526614705   T   T   T
  0.9336068301484630  0.4060291972204979  0.0955460920889948   T   T   T
  0.4606130891645108  0.5857543856902154  0.2820023999330630   T   T   T
  0.3260724372508292  0.2081852629605834  0.6370303167895628   T   T   T
  0.2639495074106009  0.0321967020709124  0.1697474326318655   T   T   T
  0.4582309545711425  0.7491962718636032  0.7979464705358197   T   T   T
 
  0.00000000E+00  0.00000000E+00  0.00000000E+00
  0.00000000E+00  0.00000000E+00  0.00000000E+00
  0.00000000E+00  0.00000000E+00  0.00000000E+00
  0.00000000E+00  0.00000000E+00  0.00000000E+00
  0.00000000E+00  0.00000000E+00  0.00000000E+00
  0.00000000E+00  0.00000000E+00  0.00000000E+00
  0.00000000E+00  0.00000000E+00  0.00000000E+00
