  7  28                                 
   1.00000000000000     
     1.0237359855514567   -2.3958834301049743    0.2599485224089581
     3.7520559303632304    2.6541853702505827    0.5854918234276317
     1.7448645277787338    1.4527325369733357    5.0662760766781432
   Cu   Ag
     3     1
Selective dynamics
Direct
  0.0372109758307033  0.6632664317725840  0.1353445716314212   T   T   T
  0.4389532948207773  0.2594786625045984  0.0469260555484965   T   T   T
  0.9572532880698006  0.2580833156112803  0.6590820376980489   T   T   T
  0.7189993027895767  0.8267267356785908  0.5010045625091024   T   T   T
 
  0.00000000E+00  0.00000000E+00  0.00000000E+00
  0.00000000E+00  0.00000000E+00  0.00000000E+00
  0.00000000E+00  0.00000000E+00  0.00000000E+00
  0.00000000E+00  0.00000000E+00  0.00000000E+00
