  1  20                                 
   1.00000000000000     
     3.0655052031557197   -0.1127120866784344    0.3377447876476803
     0.8830263120603208    2.3078419626721969    0.2084868791860343
    -1.4166108738082202   -0.7786142282720396    4.6664969412898349
   Cu   Ag
     1     1
Selective dynamics
Direct
  0.3432024216948051  0.4479871549726653  0.1550827717608740   T   T   T
  0.7122009949247143  0.5416135780859790  0.7338693249056050   T   T   T
 
  0.00000000E+00  0.00000000E+00  0.00000000E+00
  0.00000000E+00  0.00000000E+00  0.00000000E+00
