  7  22                                 
   1.00000000000000     
     2.7530206803958404    4.4209563612638814   -0.5699956009183659
    -1.9558006916935569    0.8354641378702968    3.7311002366243957
     1.3738056850412141   -3.3560807288970431    3.5614535973545931
   Cu   Ag
     6     1
Selective dynamics
Direct
  0.8357898876612353  0.0983012305838287  0.3706560647428319   T   T   T
  0.3260036716153323  0.1369686766920211  0.7824287869209385   T   T   T
  0.7693687753966074  0.6834161516739812  0.2199472999872256   T   T   T
  0.2322065239360924  0.6001219820494867  0.8275199776030675   T   T   T
  0.3625512797271000  0.3816705813739460  0.3287270116106669   T   T   T
  0.2179588173129545  0.8836425212385350  0.2659458418643794   T   T   T
  0.7703702552020744  0.4686268626569117  0.7899227912735682   T   T   T
 
  0.00000000E+00  0.00000000E+00  0.00000000E+00
  0.00000000E+00  0.00000000E+00  0.00000000E+00
  0.00000000E+00  0.00000000E+00  0.00000000E+00
  0.00000000E+00  0.00000000E+00  0.00000000E+00
  0.00000000E+00  0.00000000E+00  0.00000000E+00
  0.00000000E+00  0.00000000E+00  0.00000000E+00
  0.00000000E+00  0.00000000E+00  0.00000000E+00
