 19  27                                 
   1.00000000000000     
     0.7124387374822304    3.3773513028086488    3.3032953136162382
     2.1027794020653694   -1.7395712875052276    0.1649586560010311
     2.3742544800556713    0.6204935866305243   -1.1938126336460273
   Cu   Ag
     1     1
Selective dynamics
Direct
  0.7377265991445299  0.9922892289548457  0.5366890415839407   T   T   T
  0.2213075648391651  0.9835559945932530  0.1173607737895068   T   T   T
 
  0.00000000E+00  0.00000000E+00  0.00000000E+00
  0.00000000E+00  0.00000000E+00  0.00000000E+00
