  8  23                                 
   1.00000000000000     
     3.9544834542204104    0.7338668600505263   -0.1443729887144265
    -0.1872346221930664    0.6742241055175625    2.7348913546845246
     2.8014070278011003   -4.0972204687302556    1.9063003869489696
   Cu   Ag
     2     2
Selective dynamics
Direct
  0.3014650894887652  0.1571993814182875  0.3746915796257042   T   T   T
  0.2214881137208451  0.4465649428273508  0.8836331130010464   T   T   T
  0.8064482058204518  0.7286298551178803  0.3398020568771614   T   T   T
  0.7035227344848920  0.0292982488494715  0.8807303563524869   T   T   T
 
  0.00000000E+00  0.00000000E+00  0.00000000E+00
  0.00000000E+00  0.00000000E+00  0.00000000E+00
  0.00000000E+00  0.00000000E+00  0.00000000E+00
  0.00000000E+00  0.00000000E+00  0.00000000E+00
