  8  28                                 
   1.00000000000000     
     4.8219211951234175    1.1036214086632328   -0.4895464052982457
    -0.6354520540817066    0.6244080740686069    3.3501164547590783
    -0.6471661858929898   -4.4226774346820514   -0.4178510440640198
   Cu   Ag
     2     2
Selective dynamics
Direct
  0.6709274288205975  0.6597126981290629  0.3460794606953641   T   T   T
  0.0405135265634726  0.3745539102155249  0.8944981824586122   T   T   T
  0.2280990022492162  0.0160745307889627  0.3477183278905827   T   T   T
  0.5684081527895231  0.9341851775788683  0.8869539368293999   T   T   T
 
  0.00000000E+00  0.00000000E+00  0.00000000E+00
  0.00000000E+00  0.00000000E+00  0.00000000E+00
  0.00000000E+00  0.00000000E+00  0.00000000E+00
  0.00000000E+00  0.00000000E+00  0.00000000E+00
