 16  27                                 
   1.00000000000000     
     1.5350597438005034    2.5168377453629982    0.5116579128969769
    -3.9214611263092012    0.8405743531803848    2.2847189816101636
     0.4990829248015471   -1.7674200373475173    2.1213028375975171
   Cu   Ag
     1     1
Selective dynamics
Direct
  0.3853176762793282  0.5935837831741466  0.1529447458469164   T   T   T
  0.9161168680396088  0.0303533735848518  0.7575942232230091   T   T   T
 
  0.00000000E+00  0.00000000E+00  0.00000000E+00
  0.00000000E+00  0.00000000E+00  0.00000000E+00
