  8  25                                 
   1.00000000000000     
     2.0775853782308209    2.7190881784767580   -1.9167257040695014
    -6.7587335161250213   -0.9227346196686737   -2.8238262213416712
    -0.9036374279397620    1.7241786346396715    1.7336914845855318
   Cu   Ag
     2     2
Selective dynamics
Direct
  0.4543985831310380  0.4657693098871647  0.8666638936794655   T   T   T
  0.8386931034626741  0.3275088429174673  0.3973955264296478   T   T   T
  0.9534678387195754  0.0400844223530044  0.2017907215526620   T   T   T
  0.1643903372563145  0.7400603218202662  0.6373587042235087   T   T   T
 
  0.00000000E+00  0.00000000E+00  0.00000000E+00
  0.00000000E+00  0.00000000E+00  0.00000000E+00
  0.00000000E+00  0.00000000E+00  0.00000000E+00
  0.00000000E+00  0.00000000E+00  0.00000000E+00
