  8  29                                 
   1.00000000000000     
     3.4551208154662514   -0.1712511326284569    0.2604779450272532
    -0.5335356694515879    1.4032450660091602    3.4927878055079282
    -0.0025790331415202   -4.1027046739136672    1.9660226674639152
   Cu   Ag
     2     2
Selective dynamics
Direct
  0.8192105313305404  0.2089625288565742  0.3238738061728696   T   T   T
  0.9260308809885345  0.5261357923065049  0.8507711355781922   T   T   T
  0.2190381373813182  0.7603579734853199  0.3531600115052598   T   T   T
  0.4614690453156030  0.0200530492363029  0.8297388667874799   T   T   T
 
  0.00000000E+00  0.00000000E+00  0.00000000E+00
  0.00000000E+00  0.00000000E+00  0.00000000E+00
  0.00000000E+00  0.00000000E+00  0.00000000E+00
  0.00000000E+00  0.00000000E+00  0.00000000E+00
