                                        
   1.00000000000000     
     4.4362308470104095   -0.1439535235259372   -0.0393317983978636
     0.0136345730685436   -2.8894525578485166   -1.7214686786150848
     0.0853672314017083    1.9328690767994980   -1.7810926933294489
   Cu   Ag
     1     1
Selective dynamics
Direct
  0.6149001526755669  0.2927231178413479  0.4675084474109070   T   T   T
  0.2308708475075107  0.9192267196514123  0.7750470028844560   T   T   T
 
  0.00000000E+00  0.00000000E+00  0.00000000E+00
  0.00000000E+00  0.00000000E+00  0.00000000E+00
