  8  20                                 
   1.00000000000000     
     0.3770721320314470   -0.5584209153580393    3.5703066356068445
    -1.4965881888181176    4.4468250113840337    0.4334556291072650
    -3.3007310371035032   -0.7544138493031342   -1.0852355638370825
   Cu   Ag
     2     2
Selective dynamics
Direct
  0.6985163241713011  0.5281020552452915  0.0944270738526498   T   T   T
  0.7059868096219901  0.0201157918392170  0.0082485503480285   T   T   T
  0.0549205849994934  0.7884901580397070  0.6776406799886203   T   T   T
  0.3427365934509154  0.3106125885757720  0.4701962078084065   T   T   T
 
  0.00000000E+00  0.00000000E+00  0.00000000E+00
  0.00000000E+00  0.00000000E+00  0.00000000E+00
  0.00000000E+00  0.00000000E+00  0.00000000E+00
  0.00000000E+00  0.00000000E+00  0.00000000E+00
