  8  27                                 
   1.00000000000000     
     0.4018877652590108    1.4704490842430329   -2.1727335075103036
    -3.1527995713083654    2.2785587303819987    1.3262948992008379
     1.5902826618508836    0.6609764624626076    1.8537705233177690
   Cu   Ag
     1     1
Selective dynamics
Direct
  0.6952372154140818  0.5027481084043686  0.2895416483503013   T   T   T
  0.4728512465293306  0.9857299294558359  0.7134477856723507   T   T   T
 
  0.00000000E+00  0.00000000E+00  0.00000000E+00
  0.00000000E+00  0.00000000E+00  0.00000000E+00
