 13  29                                 
   1.00000000000000     
     0.1248751260445030    0.6757500177155749    3.2375878802535007
    -0.2894159211918327    2.6383924586485015   -0.5706390670195108
    -3.4033881274479776    0.1931506901381918    0.2700676742634340
   Cu   Ag
     1     1
Selective dynamics
Direct
  0.7327349786616608  0.8160754397831553  0.3560612999523372   T   T   T
  0.2622124987658836  0.4096973625757485  0.9152394083183211   T   T   T
 
  0.00000000E+00  0.00000000E+00  0.00000000E+00
  0.00000000E+00  0.00000000E+00  0.00000000E+00
