  7  25                                 
   1.00000000000000     
     0.7551194966140198   -2.9116138181323743    0.2701300458988571
     4.1065748984791588    2.8103315275601495    0.6771124813358592
    -2.7741819492926938    0.8753307918053996    3.6550678329026760
   Cu   Ag
     3     1
Selective dynamics
Direct
  0.1258101307201756  0.8184644399041971  0.1339723538499342   T   T   T
  0.5249247940318824  0.3142122865938006  0.0702580405580662   T   T   T
  0.4790151800287816  0.9133817110127964  0.6853956912282086   T   T   T
  0.3290834297423615  0.3350785436225152  0.5274119382755771   T   T   T
 
  0.00000000E+00  0.00000000E+00  0.00000000E+00
  0.00000000E+00  0.00000000E+00  0.00000000E+00
  0.00000000E+00  0.00000000E+00  0.00000000E+00
  0.00000000E+00  0.00000000E+00  0.00000000E+00
