  5  22                                 
   1.00000000000000     
     0.4142353347135545    0.6847873029001651    2.7682098817264116
     0.0520344023857049    3.3795802148341969   -0.4905156169705485
    -2.8745281490664865   -0.0860017350300500   -0.0033433409173412
   Cu   Ag
     1     1
Selective dynamics
Direct
  0.6630640398075656  0.8701908524745150  0.4174530159844991   T   T   T
  0.2324654814136622  0.3904240606504459  0.8743034892678452   T   T   T
 
  0.00000000E+00  0.00000000E+00  0.00000000E+00
  0.00000000E+00  0.00000000E+00  0.00000000E+00
