  7  26                                 
   1.00000000000000     
     3.5082135117609616    1.7440156862244693    2.8154692967160462
    -1.8423652897667846    1.9244325626557697    4.0021734680715406
     1.4354753368778825   -3.1496860857903557    3.2813875064585729
   Cu   Ag
     6     1
Selective dynamics
Direct
  0.7652735907562018  0.1586548340328733  0.5716573342999354   T   T   T
  0.2782196687789025  0.2371884405400309  0.4531633943485289   T   T   T
  0.6627007211926639  0.6755180788427850  0.5669118612122901   T   T   T
  0.1915593066173500  0.7536464793621533  0.4060484932530741   T   T   T
  0.2238500958725922  0.4807804765075616  0.9183650780302770   T   T   T
  0.2213133570139263  0.9594262793734032  0.9456756608045040   T   T   T
  0.7103072083313151  0.4255474106054891  0.0620219267975202   T   T   T
 
  0.00000000E+00  0.00000000E+00  0.00000000E+00
  0.00000000E+00  0.00000000E+00  0.00000000E+00
  0.00000000E+00  0.00000000E+00  0.00000000E+00
  0.00000000E+00  0.00000000E+00  0.00000000E+00
  0.00000000E+00  0.00000000E+00  0.00000000E+00
  0.00000000E+00  0.00000000E+00  0.00000000E+00
  0.00000000E+00  0.00000000E+00  0.00000000E+00
