  7  21                                 
   1.00000000000000     
     3.3931593874785539    2.7944223891277438    0.3799648511745346
     0.7011869482696673    0.8596800974417338    3.4397751356424195
     1.2169733922951880   -4.0937793398663676    0.3417409466280837
   Cu   Ag
     3     1
Selective dynamics
Direct
  0.8395796882520230  0.4884536094606418  0.9343949551530102   T   T   T
  0.8297913712493994  0.9710264495891252  0.4324089685944728   T   T   T
  0.3651860506205367  0.1260069461980393  0.7093672848940500   T   T   T
  0.3705431612489321  0.6344765660631424  0.1728493602174197   T   T   T
 
  0.00000000E+00  0.00000000E+00  0.00000000E+00
  0.00000000E+00  0.00000000E+00  0.00000000E+00
  0.00000000E+00  0.00000000E+00  0.00000000E+00
  0.00000000E+00  0.00000000E+00  0.00000000E+00
