icsd_58525  Li Au                       
   1.00000000000000     
     3.3966230801519202    0.0000000000000000    0.0000000000000000
     0.0000000000000000    3.3966230801519202    0.0000000000000000
     0.0000000000000000    0.0000000000000000    3.3966230801519202
   Cu   Ag
     1     3
Direct
  0.0000000000000000  0.0000000000000000  0.0000000000000000
  0.0000000000000000  0.5000000000000000  0.5000000000000000
  0.5000000000000000  0.5000000000000000  0.0000000000000000
  0.5000000000000000  0.0000000000000000  0.5000000000000000
 
  0.00000000E+00  0.00000000E+00  0.00000000E+00
  0.00000000E+00  0.00000000E+00  0.00000000E+00
  0.00000000E+00  0.00000000E+00  0.00000000E+00
  0.00000000E+00  0.00000000E+00  0.00000000E+00
