 18  21                                 
   1.00000000000000     
     0.1070475833242050    0.4824534734052222    3.1658906683608294
    -0.0612685677067595    3.5196377938359946   -0.7997102107090608
    -3.4558545748973022    0.0086289372709730    0.2931269467903220
   Cu   Ag
     1     1
Selective dynamics
Direct
  0.5736186081847450  0.8037616444113453  0.4258351332018719   T   T   T
  0.0882222658149416  0.1768083839124586  0.9501869972937911   T   T   T
 
  0.00000000E+00  0.00000000E+00  0.00000000E+00
  0.00000000E+00  0.00000000E+00  0.00000000E+00
