  7  29                                 
   1.00000000000000     
     0.1091179857239312    1.7524313935979390   -2.0850380002066387
    -3.4616873065766729    2.6436329686866187    1.2275548089319761
     1.6705098150915956    0.6817035004763712    2.0649301158315052
   Cu   Ag
     1     1
Selective dynamics
Direct
  0.7756936642010004  0.4879298290655569  0.3259239625020456   T   T   T
  0.3529718439167056  0.9881389571720760  0.8488886278535404   T   T   T
 
  0.00000000E+00  0.00000000E+00  0.00000000E+00
  0.00000000E+00  0.00000000E+00  0.00000000E+00
