 20  29                                 
   1.00000000000000     
     2.5214166465872712    1.7237038876908286    3.2873659965630502
     2.1339792741040151   -1.9668261794178619    0.0269781515748076
     2.0107452428671175    0.6519875060895364   -1.3346356872699152
   Cu   Ag
     1     1
Selective dynamics
Direct
  0.7153843644055513  0.2756363944531728  0.6118910904039723   T   T   T
  0.2394997959983840  0.7047711771549245  0.1373384732659062   T   T   T
 
  0.00000000E+00  0.00000000E+00  0.00000000E+00
  0.00000000E+00  0.00000000E+00  0.00000000E+00
