  7  21                                 
   1.00000000000000     
     0.9841985876347822    2.5160999063049556   -0.6041241371361661
    -2.9385560303579252    1.4613852217780998    2.3816186080884334
     1.1369726447753281   -0.6956625150694995    2.3055500791003505
   Cu   Ag
     1     1
Selective dynamics
Direct
  0.2500220804940696  0.5631502509889899  0.9101238867264243   T   T   T
  0.5483212200322356  0.0851105414180822  0.5484248022359068   T   T   T
 
  0.00000000E+00  0.00000000E+00  0.00000000E+00
  0.00000000E+00  0.00000000E+00  0.00000000E+00
