  7  24                                 
   1.00000000000000     
     5.5548700624046079    0.0573695036842601   -0.3849152315990580
    -1.7091399767922755    1.3307985394170452    4.0624977847616730
     3.0298657552680446   -4.5109115574458869   -0.1938605981757805
   Cu   Ag
     6     1
Selective dynamics
Direct
  0.8340695747120677  0.5086481787551875  0.5665765859222134   T   T   T
  0.3382221967355505  0.8616056865205408  0.4542092219508618   T   T   T
  0.8059515917054654  0.8949498557195739  0.4062320558348347   T   T   T
  0.2376914091487734  0.3362425846674171  0.5204734772840851   T   T   T
  0.3363325376667348  0.7127208673993266  0.9622971601818833   T   T   T
  0.2434737443816815  0.1971492540321620  0.0292480941201276   T   T   T
  0.7702105641723236  0.2192756304703991  0.0271301493514216   T   T   T
 
  0.00000000E+00  0.00000000E+00  0.00000000E+00
  0.00000000E+00  0.00000000E+00  0.00000000E+00
  0.00000000E+00  0.00000000E+00  0.00000000E+00
  0.00000000E+00  0.00000000E+00  0.00000000E+00
  0.00000000E+00  0.00000000E+00  0.00000000E+00
  0.00000000E+00  0.00000000E+00  0.00000000E+00
  0.00000000E+00  0.00000000E+00  0.00000000E+00
