 10  24                                 
   1.00000000000000     
     1.5492086043316298    2.3408940387212969   -0.3237196582203444
    -2.1723590142632467    3.1357664295340650    2.6106163375838003
     1.8736748114750634    0.7129591155234923    2.0547110431649345
   Cu   Ag
     1     1
Selective dynamics
Direct
  0.6095877081228736  0.4784526374643931  0.1615954604347252   T   T   T
  0.2572886330207993  0.9623529300624654  0.6483175150206435   T   T   T
 
  0.00000000E+00  0.00000000E+00  0.00000000E+00
  0.00000000E+00  0.00000000E+00  0.00000000E+00
