  7  24                                 
   1.00000000000000     
     2.3236038163807260   -0.6395477765365249   -1.4497649015540752
    -1.3189324539932485    3.3635516842871462   -2.1286922999230073
     2.3795212777443426    0.8095369846254546    1.1549334456311331
   Cu   Ag
     1     1
Selective dynamics
Direct
  0.7259271592054546  0.6079442300609230  0.1082422387730873   T   T   T
  0.2391080970498365  0.1056588149532374  0.7474337046121491   T   T   T
 
  0.00000000E+00  0.00000000E+00  0.00000000E+00
  0.00000000E+00  0.00000000E+00  0.00000000E+00
