 16  25                                 
   1.00000000000000     
     1.2290914136654061    2.4226581602878041    0.3279698198582872
    -3.7260430130473408    1.2081027026355069    2.1920851345599548
     0.8379446536401929   -1.9560173178229865    1.5590616788440914
   Cu   Ag
     1     1
Selective dynamics
Direct
  0.4012010302655398  0.5328718225476692  0.1437883421828019   T   T   T
  0.8659880828138782  0.0237945240112438  0.7094443760764761   T   T   T
 
  0.00000000E+00  0.00000000E+00  0.00000000E+00
  0.00000000E+00  0.00000000E+00  0.00000000E+00
