  3  27                                 
   1.00000000000000     
    -0.4560268304600731    1.5465523858932124   -2.1851446250703064
    -3.3262082228699348    2.8127527731907942    1.0411512610273319
     1.7366143292348923    2.2645522988789484    0.3381721804969166
   Cu   Ag
     1     1
Selective dynamics
Direct
  0.4271985676272578  0.4920454515395889  0.3341013966588449   T   T   T
  0.6171240682764818  0.9518549166481307  0.8043474402049426   T   T   T
 
  0.00000000E+00  0.00000000E+00  0.00000000E+00
  0.00000000E+00  0.00000000E+00  0.00000000E+00
