  6  25                                 
   1.00000000000000     
     0.2450672205373044    1.1233329515509449    3.5736574633984137
     0.2255910949366374    4.3877671160165495   -0.1215842039000160
    -4.4548805147712702   -0.1346444232157648    0.2358193583891642
   Cu   Ag
     1     1
Selective dynamics
Direct
  0.6232087761570639  0.9124992110100010  0.3568177641532415   T   T   T
  0.2721378551295359  0.3560017799377135  0.8759946916120640   T   T   T
 
  0.00000000E+00  0.00000000E+00  0.00000000E+00
  0.00000000E+00  0.00000000E+00  0.00000000E+00
