 18  25                                 
   1.00000000000000     
     0.2977356589974727    0.5500125324570749    2.3638381421835359
     0.1434451288328247    2.7486155711966300   -0.5098033289574926
    -3.0941682731567122   -0.1628829363031510    0.0882686633446775
   Cu   Ag
     1     1
Selective dynamics
Direct
  0.6720923728135801  0.8364657841794028  0.3668502181908835   T   T   T
  0.0997048176892719  0.3890123353466350  0.8709367844295102   T   T   T
 
  0.00000000E+00  0.00000000E+00  0.00000000E+00
  0.00000000E+00  0.00000000E+00  0.00000000E+00
