 20  28                                 
   1.00000000000000     
     0.0412970255282297    0.1780480481695007    2.7146380752899235
    -0.0569009892838724    3.4590511409748474   -0.9800506037056571
    -3.3641184925009608    0.0016268655238446    0.3226828146874456
   Cu   Ag
     1     1
Selective dynamics
Direct
  0.4813836081031155  0.7948747475888851  0.4464164666550161   T   T   T
  0.0548378553159168  0.1425986787178530  0.9617560270765040   T   T   T
 
  0.00000000E+00  0.00000000E+00  0.00000000E+00
  0.00000000E+00  0.00000000E+00  0.00000000E+00
