  7  22                                 
   1.00000000000000     
     4.2276641979042378   -0.4009200809206601   -2.7439802592675226
    -1.2339116818125342    0.2377701487062545   -1.9576583746374923
     0.3296905565010130    4.4169616779113250    0.2432243088289735
   Cu   Ag
     3     1
Selective dynamics
Direct
  0.0381242444598442  0.2607520115724711  0.0848484004850789   T   T   T
  0.9728149724909727  0.8379998679262570  0.5834182729135406   T   T   T
  0.4683650793264320  0.2742103166700076  0.4052464469020691   T   T   T
  0.5430778796079281  0.7808059761550794  0.9196035521372963   T   T   T
 
  0.00000000E+00  0.00000000E+00  0.00000000E+00
  0.00000000E+00  0.00000000E+00  0.00000000E+00
  0.00000000E+00  0.00000000E+00  0.00000000E+00
  0.00000000E+00  0.00000000E+00  0.00000000E+00
