  7  23                                 
   1.00000000000000     
     3.0889959050975038   -3.4302792907017929   -0.0772807252650584
     3.2727144283931584    3.2677344354673639    0.4622463315638872
     1.0871012799321462   -1.5516464412198279    3.8749570383938434
   Cu   Ag
     6     1
Selective dynamics
Direct
  0.8211576015922120  0.2167490759250015  0.2577276423240065   T   T   T
  0.4128025204691923  0.3875690299156176  0.9576097605764744   T   T   T
  0.5554292926100999  0.6144674883051238  0.3513506629400851   T   T   T
  0.6328643016810744  0.9513759677785032  0.8536082585676681   T   T   T
  0.1510088974856885  0.1401709881108104  0.5434130197420686   T   T   T
  0.9912850290570745  0.6040608316291554  0.5685056562222996   T   T   T
  0.1101261748645044  0.8116396917280326  0.0035438572474717   T   T   T
 
  0.00000000E+00  0.00000000E+00  0.00000000E+00
  0.00000000E+00  0.00000000E+00  0.00000000E+00
  0.00000000E+00  0.00000000E+00  0.00000000E+00
  0.00000000E+00  0.00000000E+00  0.00000000E+00
  0.00000000E+00  0.00000000E+00  0.00000000E+00
  0.00000000E+00  0.00000000E+00  0.00000000E+00
  0.00000000E+00  0.00000000E+00  0.00000000E+00
