 13  28                                 
   1.00000000000000     
     1.3811387522613594    2.3043964211707491    0.5466104959046932
    -2.3051594134173410    3.1404930364186456    2.8397969249625503
     0.5091737253372460   -1.5834614809670644    2.0777879294211217
   Cu   Ag
     1     1
Selective dynamics
Direct
  0.8227185096089968  0.5608510088778758  0.1477489964173699   T   T   T
  0.8304460213617944  0.0367357034142870  0.7478512989140640   T   T   T
 
  0.00000000E+00  0.00000000E+00  0.00000000E+00
  0.00000000E+00  0.00000000E+00  0.00000000E+00
