 13  20                                 
   1.00000000000000     
     1.4296417407771833    2.2532811842027654   -0.2463731343121357
    -2.3325917733455412    2.8080259535784036    2.8939854936521838
     0.3449528668516247   -1.5122355231433204    2.1684812229984374
   Cu   Ag
     1     1
Selective dynamics
Direct
  0.7101581184173682  0.4832392010059152  0.0250508726813123   T   T   T
  0.9390329106472777  0.9772948635729009  0.7070697667764776   T   T   T
 
  0.00000000E+00  0.00000000E+00  0.00000000E+00
  0.00000000E+00  0.00000000E+00  0.00000000E+00
