  7  20                                 
   1.00000000000000     
     2.1553853559586815   -2.3747899246382818   -3.6544242526723361
     2.7962662711763406    3.4040301473387493    0.1180201711458382
     1.0001418875414809   -2.3663494443441615    3.2854402987019573
   Cu   Ag
     6     1
Selective dynamics
Direct
  0.7783812571179141  0.2225505854654273  0.0763880065038052   T   T   T
  0.3967426765216970  0.3802600074192100  0.3388277088386360   T   T   T
  0.5422728672102934  0.6476625646206529  0.9186370954086343   T   T   T
  0.6162849735370273  0.0005418680456160  0.4968107311971224   T   T   T
  0.1696369117109811  0.2095107667063516  0.7603223857071839   T   T   T
  0.9314448471464445  0.6146251107345719  0.5543445808200573   T   T   T
  0.0869614109725561  0.8564112884160053  0.1689985294552585   T   T   T
 
  0.00000000E+00  0.00000000E+00  0.00000000E+00
  0.00000000E+00  0.00000000E+00  0.00000000E+00
  0.00000000E+00  0.00000000E+00  0.00000000E+00
  0.00000000E+00  0.00000000E+00  0.00000000E+00
  0.00000000E+00  0.00000000E+00  0.00000000E+00
  0.00000000E+00  0.00000000E+00  0.00000000E+00
  0.00000000E+00  0.00000000E+00  0.00000000E+00
