  4  25                                 
   1.00000000000000     
     2.0393471586634959   -0.6269351872884987   -1.5274050436476529
    -1.1220662047428795    1.6961834908460325   -1.3953511988402592
     2.0153760484494678    3.2117266644590567    1.0866042013156743
   Cu   Ag
     1     1
Selective dynamics
Direct
  0.7735289194179487  0.4924091055176802  0.1452095844347170   T   T   T
  0.2437304881193540  0.3397549910129811  0.6597713409869499   T   T   T
 
  0.00000000E+00  0.00000000E+00  0.00000000E+00
  0.00000000E+00  0.00000000E+00  0.00000000E+00
