                                        
   1.00000000000000     
     0.4125989334804871    2.7563073277286501    0.0012263437042997
    -3.1691904891039635   -0.8296528699112352    2.6096744995042287
     1.5112907386343761   -0.9366737391122575    2.4039388771345269
   Cu   Ag
     1     1
Selective dynamics
Direct
  0.6993593869360595  0.4973917056329142  0.9046853267242838   T   T   T
  0.3215195538943547  0.9898441112552518  0.4554316814216648   T   T   T
 
  0.00000000E+00  0.00000000E+00  0.00000000E+00
  0.00000000E+00  0.00000000E+00  0.00000000E+00
