  9  29                                 
   1.00000000000000     
    -0.2705836056377141    0.6126628966594525    2.8882754683911021
     0.1272190646672273    2.7806447053894483   -0.5319826828951930
    -3.5251181157756930   -0.0745724939068785    0.6436152962342163
   Cu   Ag
     1     1
Selective dynamics
Direct
  0.6945078690460207  0.7523012246522569  0.3838870026996304   T   T   T
  0.2317366176924480  0.2906556594701684  0.9408278879094709   T   T   T
 
  0.00000000E+00  0.00000000E+00  0.00000000E+00
  0.00000000E+00  0.00000000E+00  0.00000000E+00
