  7  22                                 
   1.00000000000000     
    -0.1421171352604369    0.9082768100189486    5.7423502872813676
    -0.1692627220259718    3.4376271130665823   -0.6042077886008126
    -3.5186805701180441    0.1263102210476862    0.3624522420029338
   Cu   Ag
     1     1
Selective dynamics
Direct
  0.6622960705762395  0.8801821524716615  0.4125054502766403   T   T   T
  0.2710958879672631  0.4082730281536087  0.9761410854141417   T   T   T
 
  0.00000000E+00  0.00000000E+00  0.00000000E+00
  0.00000000E+00  0.00000000E+00  0.00000000E+00
