icsd_58525  Li Au                       
   1.00000000000000     
     4.2862148392393298    0.0000000000000000    0.0000000000000000
     0.0000000000000000    4.2862148392393298    0.0000000000000000
     0.0000000000000000    0.0000000000000000    4.2862148392393298
   Cu   Ag
     1     3
Direct
  0.0000000000000000  0.0000000000000000  0.0000000000000000
  0.0000000000000000  0.5000000000000000  0.5000000000000000
  0.5000000000000000  0.5000000000000000  0.0000000000000000
  0.5000000000000000  0.0000000000000000  0.5000000000000000
 
  0.00000000E+00  0.00000000E+00  0.00000000E+00
  0.00000000E+00  0.00000000E+00  0.00000000E+00
  0.00000000E+00  0.00000000E+00  0.00000000E+00
  0.00000000E+00  0.00000000E+00  0.00000000E+00
