 21  27                                 
   1.00000000000000     
     0.1148504980820217    0.5985399759980243    2.6662726380981532
    -0.0821088831009970    2.9756909493967441   -0.5018367853848456
    -3.7780260329242030    0.1905124052708711    0.2510554704116220
   Cu   Ag
     1     1
Selective dynamics
Direct
  0.7189135901213319  0.7889236930484174  0.4811128837938909   T   T   T
  0.1829483204575766  0.2205075008145556  0.9205568576492311   T   T   T
 
  0.00000000E+00  0.00000000E+00  0.00000000E+00
  0.00000000E+00  0.00000000E+00  0.00000000E+00
