  7  23                                 
   1.00000000000000     
     1.0400347124464304    2.4089562406427181   -0.1123008812235572
    -3.0692057317683750    1.2891762579920472    2.8806118231365345
     1.9574265702833498    0.2920415131303794    1.7883221918484162
   Cu   Ag
     1     1
Selective dynamics
Direct
  0.3379977281511799  0.4471856376085341  0.0026074436589312   T   T   T
  0.1418909012692495  0.9398784003825114  0.6126988891345704   T   T   T
 
  0.00000000E+00  0.00000000E+00  0.00000000E+00
  0.00000000E+00  0.00000000E+00  0.00000000E+00
