 16  22                                 
   1.00000000000000     
     1.6930915109082787   -0.9921060581688135   -1.5313436324516967
    -0.9171679755485255    3.6540432113601420   -2.2797076278779791
     1.3361302962016430    1.5305954342156871    1.5208232690539729
   Cu   Ag
     1     1
Selective dynamics
Direct
  0.7304964786031860  0.6759080463041442  0.8851982724910954   T   T   T
  0.3081625377703432  0.1690482527888619  0.9211476504499032   T   T   T
 
  0.00000000E+00  0.00000000E+00  0.00000000E+00
  0.00000000E+00  0.00000000E+00  0.00000000E+00
