 13  21                                 
   1.00000000000000     
     0.0364049417135854    0.6656683459736664    2.8374279595713725
     0.0064661313413814    3.5557322931183117   -0.7062101551418579
    -2.6659970465172460   -0.1004136072293184    0.2726373622299073
   Cu   Ag
     1     1
Selective dynamics
Direct
  0.6710257063360672  0.7916477409744829  0.4845279472924702   T   T   T
  0.1514320264172326  0.3260607631448522  0.8883093563603666   T   T   T
 
  0.00000000E+00  0.00000000E+00  0.00000000E+00
  0.00000000E+00  0.00000000E+00  0.00000000E+00
