 14  20                                 
   1.00000000000000     
     1.4823106089320894    2.2745715430453375   -0.1684062880778050
    -2.3199285302613539    2.9796750191079213    2.7308434991637656
     1.9214595217602157    0.5453266999055839    1.8695746054210429
   Cu   Ag
     1     1
Selective dynamics
Direct
  0.6415229900276884  0.4826462361629353  0.0942620105032788   T   T   T
  0.2790338021811181  0.9701795787823357  0.6586267967273827   T   T   T
 
  0.00000000E+00  0.00000000E+00  0.00000000E+00
  0.00000000E+00  0.00000000E+00  0.00000000E+00
