  7  27                                 
   1.00000000000000     
     3.6034212507832613    2.4724029848383302    0.3353848953091005
     0.6789010408620801    0.6643458647386187    3.2344419274414395
     1.5932298544426338   -3.7886332248244488    0.5048562360618782
   Cu   Ag
     3     1
Selective dynamics
Direct
  0.8400548182451573  0.4047498707931894  0.9319865999147652   T   T   T
  0.8458767885039293  0.9939887919195982  0.4496588449611281   T   T   T
  0.3394203214710103  0.0465179252006322  0.6717573366057081   T   T   T
  0.3610014232252041  0.6211337652557916  0.1879959927910519   T   T   T
 
  0.00000000E+00  0.00000000E+00  0.00000000E+00
  0.00000000E+00  0.00000000E+00  0.00000000E+00
  0.00000000E+00  0.00000000E+00  0.00000000E+00
  0.00000000E+00  0.00000000E+00  0.00000000E+00
