  0  29                                 
   1.00000000000000     
     3.4684285218610023    0.2370314665947439    0.0835017136444739
    -0.9882474019311359    4.4790009380488529    0.0500530445731235
    -0.4693809569464861    1.3362718963495441    3.9057601715355057
   Cu   Ag
     1     1
Selective dynamics
Direct
  0.2781045035800602  0.2956777459249196  0.8551142124945272   T   T   T
  0.3426812275942765  0.8917075983031921  0.5694927338039122   T   T   T
 
  0.00000000E+00  0.00000000E+00  0.00000000E+00
  0.00000000E+00  0.00000000E+00  0.00000000E+00
