  7  27                                 
   1.00000000000000     
     3.8268049862218092    0.0011858304881149    2.0234798855449938
    -3.5426567121006545   -0.4354146547093298    3.7590539697452630
    -0.0359504073098090   -4.4758990962111618   -0.7277209453419837
   Cu   Ag
     6     1
Selective dynamics
Direct
  0.9519705164173828  0.6701512543856296  0.5163968869522009   T   T   T
  0.8074251361483604  0.0572424511686691  0.4408958031048300   T   T   T
  0.9433465073426106  0.3821830890483824  0.0474544430610635   T   T   T
  0.4920179374037943  0.4876545242827390  0.3133966350621833   T   T   T
  0.4346383080390694  0.2483519864800314  0.7559380151765964   T   T   T
  0.2504587376050722  0.0065011366699181  0.1737046972705585   T   T   T
  0.4988067514894823  0.7788453152852739  0.8088533050403797   T   T   T
 
  0.00000000E+00  0.00000000E+00  0.00000000E+00
  0.00000000E+00  0.00000000E+00  0.00000000E+00
  0.00000000E+00  0.00000000E+00  0.00000000E+00
  0.00000000E+00  0.00000000E+00  0.00000000E+00
  0.00000000E+00  0.00000000E+00  0.00000000E+00
  0.00000000E+00  0.00000000E+00  0.00000000E+00
  0.00000000E+00  0.00000000E+00  0.00000000E+00
