  9  21                                 
   1.00000000000000     
    -0.3787593528324622    1.8938179995501336   -1.8848929788423419
    -3.0149545938763906    1.3004570852223023    3.0833699930226173
     1.6578982626697514    0.5835873096376708    1.9143003478783147
   Cu   Ag
     1     1
Selective dynamics
Direct
  0.4445542608805013  0.4323290712371346  0.3332914398078515   T   T   T
  0.1983662432851148  0.9323092404875837  0.7902865250663993   T   T   T
 
  0.00000000E+00  0.00000000E+00  0.00000000E+00
  0.00000000E+00  0.00000000E+00  0.00000000E+00
