Cu NP
1.000000
     20.00000000        0.00000000        0.00000000
      0.00000000       20.00000000        0.00000000
      0.00000000        0.00000000       20.00000000
Cu
    36
Cartesian
      8.78504090        8.78512670       10.00000000
     11.75961210        9.10945610       10.00000000
      9.10951520       11.75965600       10.00000000
     10.16741660       10.16741750       11.98894980
     10.16741660       10.16741750        8.01104930
     11.93196680       11.93192680       10.00000000
      9.42047690        7.44318110       12.48107340
      9.42047690        7.44318110        7.51892660
      7.44315480        9.42050940        7.51889760
      7.44315480        9.42050940       12.48110300
     12.88784040       10.76083000       12.29368020
     12.88784040       10.76083000        7.70632030
     10.76088050       12.88782880       12.29367830
     10.76088050       12.88782880        7.70632080
      9.35505580        6.15304180       10.00000000
      6.15297130        9.35511210       10.00000000
      6.67904570       11.72593210       11.34034060
      6.67904570       11.72593210        8.65966040
     11.72590350        6.67898470        8.65965940
     11.72590350        6.67898470       11.34034160
     11.81645300        8.52279760       13.38647750
     11.81645210        8.52279670        6.61352210
      8.52283480       11.81646920        6.61350490
      8.52283480       11.81646920       13.38649560
     14.29029470       10.48126410       10.00000000
     10.48133090       14.29029280       10.00000000
      7.02653030        7.02659610        8.69745160
      7.02653030        7.02659610       11.30254840
     13.85033320        8.30264760        8.52811430
     13.85033320        8.30264760       11.47188570
      8.30271630       13.85036100       11.47190570
      8.30271630       13.85036100        8.52809430
      9.30834010        9.30833630        5.54179620
      9.30834010        9.30833630       14.45820430
     11.15518000       11.15516470        5.66208410
     11.15518190       11.15516280       14.33791640
