  7  29                                 
   1.00000000000000     
     1.5281185219609392    3.9247848200568729   -0.3388388144584507
    -1.9275715106361357    1.6021065047579210    4.4048761028437324
     3.4626735825065134    1.3490981067152581    3.0298100028511397
   Cu   Ag
     6     1
Selective dynamics
Direct
  0.3185715866098136  0.1108208053880233  0.4754745302354806   T   T   T
  0.4999180709201596  0.1624965836377825  0.8451917575238141   T   T   T
  0.5657707599132635  0.6806321713772832  0.2008142862173301   T   T   T
  0.4794993624568846  0.6998360739282745  0.7230226587818720   T   T   T
  0.0490449223767939  0.4211316446339239  0.2529754686356540   T   T   T
  0.0526051112672903  0.8890999195132778  0.2757278297367876   T   T   T
  0.9884087080392163  0.4126720347616200  0.8071439320083726   T   T   T
 
  0.00000000E+00  0.00000000E+00  0.00000000E+00
  0.00000000E+00  0.00000000E+00  0.00000000E+00
  0.00000000E+00  0.00000000E+00  0.00000000E+00
  0.00000000E+00  0.00000000E+00  0.00000000E+00
  0.00000000E+00  0.00000000E+00  0.00000000E+00
  0.00000000E+00  0.00000000E+00  0.00000000E+00
  0.00000000E+00  0.00000000E+00  0.00000000E+00
