  5  27                                 
   1.00000000000000     
     0.4662254930372301    0.9546970698449886    2.7084273264581551
    -0.3300596990880062    2.7129183325989019   -0.2704036803421058
    -5.2126697938582955    0.1035494006411893    0.1508911735962139
   Cu   Ag
     1     1
Selective dynamics
Direct
  0.6006573385525442  0.8582581148874269  0.4830224885311978   T   T   T
  0.3381190380458960  0.3805417693139361  0.8566254207969166   T   T   T
 
  0.00000000E+00  0.00000000E+00  0.00000000E+00
  0.00000000E+00  0.00000000E+00  0.00000000E+00
