  8  21                                 
   1.00000000000000     
     5.7036417615733335    0.4472241898973384    1.3627365367940842
     0.8229614960797841   -0.9778141861062153   -3.6506270366279034
     3.0403344681626447    6.0480948664438330   -3.0975155569768207
   Cu   Ag
     2     2
Selective dynamics
Direct
  0.9699130376715175  0.3380758471276408  0.7240579900345026   T   T   T
  0.8716990252464996  0.6949551587214344  0.1388811109467127   T   T   T
  0.3757728483932468  0.1722368337135194  0.2947173825229470   T   T   T
  0.4792124740785653  0.0174962352238737  0.8364408090456408   T   T   T
 
  0.00000000E+00  0.00000000E+00  0.00000000E+00
  0.00000000E+00  0.00000000E+00  0.00000000E+00
  0.00000000E+00  0.00000000E+00  0.00000000E+00
  0.00000000E+00  0.00000000E+00  0.00000000E+00
