 13  24                                 
   1.00000000000000     
    -1.8903691101374305   -0.0764396239565785   -2.1005304584684557
    -3.2118561543896478    1.4476049318173465    2.2688724710864734
     0.8233302149753008    2.3284331265998954    0.7440205813476788
   Cu   Ag
     1     1
Selective dynamics
Direct
  0.9569024837462905  0.4218377813457010  0.3345895336075131   T   T   T
  0.5971572907324258  0.9537837617128488  0.4991715400361230   T   T   T
 
  0.00000000E+00  0.00000000E+00  0.00000000E+00
  0.00000000E+00  0.00000000E+00  0.00000000E+00
