 10  20                                 
   1.00000000000000     
     1.9387077144866749   -0.3639712591940586   -1.6564435392926558
    -1.1965358156188257    3.6654477292387857   -2.4826983692197548
     2.2450939667221181    1.0873060260823249    0.9954429183539516
   Cu   Ag
     1     1
Selective dynamics
Direct
  0.7761107115934180  0.6493652532907745  0.0816330374220797   T   T   T
  0.2339763157609909  0.1380677465813918  0.6116702834817929   T   T   T
 
  0.00000000E+00  0.00000000E+00  0.00000000E+00
  0.00000000E+00  0.00000000E+00  0.00000000E+00
