  8  22                                 
   1.00000000000000     
     2.3949316583064202   -4.0731038072972865    0.1605857021634127
     0.6575061076819908    1.2466165431842535   -3.4756999206139887
     2.6053017993695686    3.7616422677361774    0.1083826683533428
   Cu   Ag
     2     2
Selective dynamics
Direct
  0.5002284648946187  0.5353838655465282  0.0496480748224073   T   T   T
  0.0384871999263439  0.2423625157830713  0.4494553108734962   T   T   T
  0.9362006913728891  0.5813852561446495  0.7852748842899331   T   T   T
  0.3781421873510169  0.8464087610215643  0.4004491935116761   T   T   T
 
  0.00000000E+00  0.00000000E+00  0.00000000E+00
  0.00000000E+00  0.00000000E+00  0.00000000E+00
  0.00000000E+00  0.00000000E+00  0.00000000E+00
  0.00000000E+00  0.00000000E+00  0.00000000E+00
