  9  22                                 
   1.00000000000000     
     0.4430563852388776   -2.1710263901333251    4.8663227237986586
    -0.0839076938790472    3.1761002865384667   -0.2693419550251261
    -4.9090297056985870    0.1053693726778667    0.2926912622908089
   Cu   Ag
     1     1
Selective dynamics
Direct
  0.9020173630589028  0.8336271904619537  0.3842795177141554   T   T   T
  0.1085007523444332  0.5998163215448855  0.9328235874052737   T   T   T
 
  0.00000000E+00  0.00000000E+00  0.00000000E+00
  0.00000000E+00  0.00000000E+00  0.00000000E+00
