                                        
   1.00000000000000     
     0.8928539102622699    2.7003550967029954   -0.0280356719357897
    -3.3638131973936716   -0.0062681133204321    0.0728306685820453
     0.6345132617586300    0.4888725321676257    4.4380966683981491
   Cu   Ag
     1     1
Selective dynamics
Direct
  0.2320517016205841  0.5471462993538694  0.4188203603816802   T   T   T
  0.7447225149981662  0.3210641042990900  0.9655743716355829   T   T   T
 
  0.00000000E+00  0.00000000E+00  0.00000000E+00
  0.00000000E+00  0.00000000E+00  0.00000000E+00
