                                        
   1.00000000000000     
     1.1748115553966370    3.4346468082527095   -0.1467540488165052
    -3.9661821814502245   -0.0243993285004472    0.0477544909199372
     0.4058820502007480   -0.1758487357074665    4.2298185432732582
   Cu   Ag
     1     1
Selective dynamics
Direct
  0.3750972454699379  0.6112862248561939  0.5083410185075579   T   T   T
  0.7991146026727094  0.5817192271662321  0.0578335559524348   T   T   T
 
  0.00000000E+00  0.00000000E+00  0.00000000E+00
  0.00000000E+00  0.00000000E+00  0.00000000E+00
